
Gurobi 8.0.1 (linux64) logging started Wed Aug 29 11:15:30 2018

Academic license - for non-commercial use only

Gurobi 8.0.1 (linux64) logging started Wed Aug 29 11:16:22 2018

Academic license - for non-commercial use only

Gurobi 8.0.1 (linux64) logging started Wed Aug 29 11:20:30 2018

Academic license - for non-commercial use only

Gurobi 8.0.1 (linux64) logging started Wed Aug 29 11:22:30 2018

Academic license - for non-commercial use only

Gurobi 8.0.1 (linux64) logging started Wed Aug 29 11:24:45 2018

Academic license - for non-commercial use only

Gurobi 8.0.1 (linux64) logging started Wed Aug 29 11:28:31 2018

Academic license - for non-commercial use only

Gurobi 8.0.1 (linux64) logging started Wed Aug 29 11:30:56 2018

Academic license - for non-commercial use only

Gurobi 8.0.1 (linux64) logging started Wed Aug 29 11:37:57 2018

Academic license - for non-commercial use only

Gurobi 8.0.1 (linux64) logging started Wed Aug 29 11:39:56 2018

Academic license - for non-commercial use only

Gurobi 8.0.1 (linux64) logging started Wed Aug 29 11:45:21 2018

Academic license - for non-commercial use only

Gurobi 8.0.1 (linux64) logging started Wed Aug 29 11:47:24 2018

Academic license - for non-commercial use only

Gurobi 8.0.1 (linux64) logging started Wed Aug 29 11:50:44 2018

Academic license - for non-commercial use only

Gurobi 8.0.1 (linux64) logging started Wed Aug 29 11:51:51 2018

Academic license - for non-commercial use only

Gurobi 8.0.1 (linux64) logging started Wed Aug 29 11:52:30 2018

Academic license - for non-commercial use only

Gurobi 8.0.1 (linux64) logging started Wed Aug 29 11:52:53 2018

Academic license - for non-commercial use only

Gurobi 8.0.1 (linux64) logging started Wed Aug 29 11:55:26 2018

Academic license - for non-commercial use only

Gurobi 8.0.1 (linux64) logging started Wed Aug 29 14:00:07 2018

Academic license - for non-commercial use only

Gurobi 8.0.1 (linux64) logging started Wed Aug 29 14:00:50 2018

Academic license - for non-commercial use only

Gurobi 8.0.1 (linux64) logging started Wed Aug 29 14:02:02 2018

Academic license - for non-commercial use only

Gurobi 8.0.1 (linux64) logging started Wed Aug 29 14:02:24 2018

Academic license - for non-commercial use only

Gurobi 8.0.1 (linux64) logging started Wed Aug 29 14:02:47 2018

Academic license - for non-commercial use only

Gurobi 8.0.1 (linux64) logging started Wed Aug 29 14:03:09 2018

Academic license - for non-commercial use only

Gurobi 8.0.1 (linux64) logging started Wed Aug 29 14:03:31 2018

Academic license - for non-commercial use only

Gurobi 8.0.1 (linux64) logging started Wed Aug 29 14:05:57 2018

Academic license - for non-commercial use only

Gurobi 8.0.1 (linux64) logging started Wed Aug 29 14:09:54 2018

Academic license - for non-commercial use only

Gurobi 8.0.1 (linux64) logging started Wed Aug 29 14:11:55 2018

Academic license - for non-commercial use only

Gurobi 8.0.1 (linux64) logging started Wed Aug 29 14:13:56 2018

Academic license - for non-commercial use only

Gurobi 8.0.1 (linux64) logging started Wed Aug 29 14:14:16 2018

Academic license - for non-commercial use only

Gurobi 8.0.1 (linux64) logging started Wed Aug 29 14:16:12 2018

Academic license - for non-commercial use only

Gurobi 8.0.1 (linux64) logging started Wed Aug 29 14:18:13 2018

Academic license - for non-commercial use only

Gurobi 8.0.1 (linux64) logging started Wed Aug 29 14:18:55 2018

Academic license - for non-commercial use only

Gurobi 8.0.1 (linux64) logging started Wed Aug 29 14:20:52 2018

Academic license - for non-commercial use only

Gurobi 8.0.1 (linux64) logging started Wed Aug 29 14:22:54 2018

Academic license - for non-commercial use only

Gurobi 8.0.1 (linux64) logging started Wed Aug 29 14:24:53 2018

Academic license - for non-commercial use only

Gurobi 8.0.1 (linux64) logging started Wed Aug 29 14:26:52 2018

Academic license - for non-commercial use only

Gurobi 8.0.1 (linux64) logging started Wed Aug 29 14:31:27 2018

Academic license - for non-commercial use only

Gurobi 8.0.1 (linux64) logging started Wed Aug 29 14:34:32 2018

Academic license - for non-commercial use only

Gurobi 8.0.1 (linux64) logging started Wed Aug 29 14:36:33 2018

Academic license - for non-commercial use only

Gurobi 8.0.1 (linux64) logging started Wed Aug 29 14:38:33 2018

Academic license - for non-commercial use only
